n_machines = 10;
n_resources = 12;
n_jobs = 240;
horizon = 1179;
LB = 117;
n_jobs_per_resource = [20, 20, 20, 20, 20, 20, 20, 20, 20, 20, 20, 20];
duration = [7, 4, 5, 8, 1, 8, 6, 5, 2, 5, 4, 4, 9, 4, 4, 7, 4, 1, 8, 6, 6, 1, 4, 3, 4, 3, 3, 1, 5, 8, 2, 9, 5, 4, 8, 8, 5, 2, 3, 4, 1, 2, 7, 6, 2, 9, 5, 3, 5, 6, 7, 2, 8, 8, 8, 9, 5, 4, 7, 3, 5, 4, 7, 1, 2, 2, 2, 6, 2, 9, 5, 3, 2, 2, 7, 1, 2, 1, 4, 2, 8, 8, 9, 4, 1, 5, 6, 4, 5, 5, 9, 5, 5, 8, 5, 3, 7, 2, 5, 5, 9, 5, 2, 9, 5, 4, 6, 6, 4, 2, 8, 9, 1, 8, 4, 9, 9, 1, 1, 6, 3, 4, 4, 1, 5, 8, 1, 7, 7, 1, 1, 1, 9, 9, 6, 5, 8, 1, 2, 8, 4, 3, 6, 8, 7, 8, 7, 8, 6, 2, 6, 2, 6, 4, 1, 3, 3, 5, 6, 8, 1, 6, 9, 3, 8, 5, 3, 4, 5, 9, 7, 7, 7, 8, 1, 8, 5, 2, 3, 4, 3, 6, 8, 3, 1, 3, 9, 1, 1, 6, 8, 3, 4, 8, 9, 2, 7, 3, 4, 4, 5, 8, 7, 7, 4, 2, 7, 4, 3, 9, 1, 6, 6, 4, 5, 6, 9, 4, 5, 3, 1, 5, 2, 7, 5, 9, 3, 9, 9, 7, 5, 2, 4, 5, 9, 2, 1, 3, 6, 5]